
;this file is automatically generated: Tue Oct 27 10:35:00 CST 2020

;declarations generated

(declare-fun type_0956274e_ece0_42a0_8e9f_27aed301a3e6_Class8 ( Int) Bool)
(declare-fun type_0956274e_ece0_42a0_8e9f_27aed301a3e6_Class3 ( Int) Bool)
(declare-fun type_0956274e_ece0_42a0_8e9f_27aed301a3e6_Class1 ( Int) Bool)
(declare-fun oclExcludes ( Int Int) Bool)
(declare-fun Cardinality ( Int) Int)
(declare-fun obj_63f22a6a_6820_4d33_b139_97c4170ae59a ( Int) Int)
(declare-fun type_0956274e_ece0_42a0_8e9f_27aed301a3e6_Class28 ( Int) Bool)
(declare-fun type_0956274e_ece0_42a0_8e9f_27aed301a3e6_Class26 ( Int) Bool)
(declare-fun type_0956274e_ece0_42a0_8e9f_27aed301a3e6_Class27 ( Int) Bool)
(declare-fun type_0956274e_ece0_42a0_8e9f_27aed301a3e6_Class24 ( Int) Bool)
(declare-fun type_0956274e_ece0_42a0_8e9f_27aed301a3e6_Class23 ( Int) Bool)
(declare-fun oclSelect ( Int Bool) Int)
(declare-fun Enum0 ( Int) Int)
(declare-fun Enum1 ( Int) Int)
(declare-fun Enum2 ( Int) Int)
(declare-fun container_ ( Int) Int)
(declare-fun oclIncludes ( Int Int) Bool)
(declare-fun ObjAt ( Int Int) Int)

;formula(s) generated
(assert (forall ((p Int)) (=> ( type_0956274e_ece0_42a0_8e9f_27aed301a3e6_Class26 p )  (and (>= ( Enum1 ( obj_63f22a6a_6820_4d33_b139_97c4170ae59a p )  )  0) (<= ( Enum1 ( obj_63f22a6a_6820_4d33_b139_97c4170ae59a p )  )  13)))))
(assert (! (forall ((v Int)) (=> (and (and (and (and (and (and (and ( type_0956274e_ece0_42a0_8e9f_27aed301a3e6_Class26 v )  ( type_0956274e_ece0_42a0_8e9f_27aed301a3e6_Class23 v ) ) ( type_0956274e_ece0_42a0_8e9f_27aed301a3e6_Class24 v ) ) ( type_0956274e_ece0_42a0_8e9f_27aed301a3e6_Class8 v ) ) ( type_0956274e_ece0_42a0_8e9f_27aed301a3e6_Class27 v ) ) ( type_0956274e_ece0_42a0_8e9f_27aed301a3e6_Class28 v ) ) ( type_0956274e_ece0_42a0_8e9f_27aed301a3e6_Class1 v ) ) ( type_0956274e_ece0_42a0_8e9f_27aed301a3e6_Class3 v ) ) (= ( Enum1 ( obj_63f22a6a_6820_4d33_b139_97c4170ae59a v )  )  7))):named l0))
(assert (exists ((o Int)) (and (and (and (and (and (and (and ( type_0956274e_ece0_42a0_8e9f_27aed301a3e6_Class26 ( obj_63f22a6a_6820_4d33_b139_97c4170ae59a o )  )  ( type_0956274e_ece0_42a0_8e9f_27aed301a3e6_Class23 ( obj_63f22a6a_6820_4d33_b139_97c4170ae59a o )  ) ) ( type_0956274e_ece0_42a0_8e9f_27aed301a3e6_Class24 ( obj_63f22a6a_6820_4d33_b139_97c4170ae59a o )  ) ) ( type_0956274e_ece0_42a0_8e9f_27aed301a3e6_Class8 ( obj_63f22a6a_6820_4d33_b139_97c4170ae59a o )  ) ) ( type_0956274e_ece0_42a0_8e9f_27aed301a3e6_Class27 ( obj_63f22a6a_6820_4d33_b139_97c4170ae59a o )  ) ) ( type_0956274e_ece0_42a0_8e9f_27aed301a3e6_Class28 ( obj_63f22a6a_6820_4d33_b139_97c4170ae59a o )  ) ) ( type_0956274e_ece0_42a0_8e9f_27aed301a3e6_Class1 ( obj_63f22a6a_6820_4d33_b139_97c4170ae59a o )  ) ) ( type_0956274e_ece0_42a0_8e9f_27aed301a3e6_Class3 ( obj_63f22a6a_6820_4d33_b139_97c4170ae59a o )  ) )))

 ;end of formula 